Gurobi Optimizer version 9.1.0 build v9.1.0rc0 (linux64)
Thread count: 8 physical cores, 16 logical processors, using up to 16 threads
Optimize a model with 64036 rows, 60480 columns and 346170 nonzeros
Model fingerprint: 0x7424a9a0
Variable types: 0 continuous, 60480 integer (60480 binary)
Coefficient statistics:
  Matrix range     [1e+00, 1e+00]
  Objective range  [1e+01, 3e+04]
  Bounds range     [1e+00, 1e+00]
  RHS range        [1e+00, 2e+02]
Presolve added 0 rows and 1470 columns
Presolve removed 30 rows and 0 columns
Presolve time: 1.36s
Presolved: 64006 rows, 61950 columns, 260610 nonzeros
Variable types: 0 continuous, 61950 integer (61950 binary)
Found heuristic solution: objective 192652.00000

Concurrent LP optimizer: primal simplex, dual simplex, and barrier
Showing barrier log only...

Root barrier log...

Ordering time: 0.23s

Barrier statistics:
 Dense cols : 240
 AA' NZ     : 2.036e+05
 Factor NZ  : 7.761e+05 (roughly 60 MBytes of memory)
 Factor Ops : 1.196e+08 (less than 1 second per iteration)
 Threads    : 6

                  Objective                Residual
Iter       Primal          Dual         Primal    Dual     Compl     Time
   0   4.67589181e+07 -6.30403694e+07  1.91e+02 2.95e+01  8.13e+03     3s
   1   5.63812549e+05 -6.21469948e+07  3.37e+00 1.50e+03  4.30e+02     3s
   2   2.68497424e+05 -1.10075082e+07  6.00e-01 1.72e+02  6.81e+01     3s
   3   2.50215334e+05 -1.45411880e+06  4.32e-01 1.43e+01  1.03e+01     3s
   4   2.07937293e+05 -1.27031460e+05  9.96e-02 2.36e+00  1.81e+00     3s
   5   1.89998438e+05  9.96035411e+04  5.23e-02 6.15e-01  4.68e-01     3s
   6   1.82253224e+05  1.24089626e+05  3.99e-02 3.19e-01  2.97e-01     3s
   7   1.79444960e+05  1.33920163e+05  3.61e-02 2.01e-01  2.30e-01     3s
   8   1.72851017e+05  1.40243915e+05  2.74e-02 1.25e-01  1.64e-01     3s
   9   1.70426502e+05  1.42727689e+05  2.42e-02 9.78e-02  1.38e-01     3s
  10   1.68487116e+05  1.45474946e+05  2.17e-02 6.50e-02  1.14e-01     4s
  11   1.64998249e+05  1.47160893e+05  1.75e-02 4.88e-02  8.82e-02     4s
  12   1.63841554e+05  1.48015391e+05  1.62e-02 3.68e-02  7.79e-02     4s
  13   1.61003254e+05  1.49085654e+05  1.25e-02 2.11e-02  5.85e-02     4s
  14   1.58841624e+05  1.49705460e+05  9.76e-03 1.71e-02  4.48e-02     4s
  15   1.58513225e+05  1.50137264e+05  9.39e-03 1.22e-02  4.09e-02     4s
  16   1.55741753e+05  1.50385411e+05  6.16e-03 8.64e-03  2.61e-02     4s
  17   1.55210958e+05  1.50482094e+05  5.51e-03 7.65e-03  2.30e-02     4s
  18   1.54454927e+05  1.50671947e+05  4.52e-03 8.01e-03  1.83e-02     4s
  19   1.53774569e+05  1.50867882e+05  3.58e-03 7.22e-03  1.40e-02     4s
  20   1.53130025e+05  1.50933876e+05  2.75e-03 5.74e-03  1.06e-02     4s
  21   1.52768227e+05  1.51018045e+05  2.25e-03 4.32e-03  8.41e-03     4s
  22   1.52531898e+05  1.51069986e+05  1.91e-03 3.25e-03  7.01e-03     4s
  23   1.52239354e+05  1.51082166e+05  1.51e-03 2.85e-03  5.55e-03     5s
  24   1.52023148e+05  1.51102346e+05  1.21e-03 2.47e-03  4.41e-03     5s
  25   1.51780238e+05  1.51120393e+05  8.86e-04 1.69e-03  3.15e-03     5s
  26   1.51665383e+05  1.51143051e+05  7.09e-04 1.17e-03  2.49e-03     5s
  27   1.51514148e+05  1.51152353e+05  4.98e-04 7.74e-04  1.72e-03     5s
  28   1.51435540e+05  1.51158862e+05  3.84e-04 5.87e-04  1.32e-03     5s
  29   1.51366471e+05  1.51163769e+05  2.84e-04 4.62e-04  9.63e-04     5s
  30   1.51332794e+05  1.51170741e+05  2.35e-04 3.05e-04  7.67e-04     5s
  31   1.51306676e+05  1.51173892e+05  1.93e-04 2.32e-04  6.28e-04     5s
  32   1.51273227e+05  1.51175083e+05  1.46e-04 1.99e-04  4.63e-04     5s
  33   1.51261702e+05  1.51177719e+05  1.28e-04 1.43e-04  3.95e-04     5s
  34   1.51253300e+05  1.51178424e+05  1.14e-04 1.24e-04  3.52e-04     6s
  35   1.51236745e+05  1.51179644e+05  8.63e-05 9.25e-05  2.69e-04     6s
  36   1.51220794e+05  1.51180294e+05  6.19e-05 7.76e-05  1.90e-04     6s
  37   1.51213486e+05  1.51181686e+05  5.01e-05 5.16e-05  1.49e-04     6s
  38   1.51206909e+05  1.51181993e+05  3.86e-05 4.47e-05  1.17e-04     6s
  39   1.51200624e+05  1.51182385e+05  2.76e-05 3.68e-05  8.58e-05     6s
  40   1.51197065e+05  1.51182552e+05  2.18e-05 3.39e-05  6.83e-05     6s
  41   1.51194310e+05  1.51183116e+05  1.69e-05 2.38e-05  5.26e-05     6s
  42   1.51193363e+05  1.51183515e+05  1.53e-05 1.65e-05  4.62e-05     6s
  43   1.51191060e+05  1.51183602e+05  1.15e-05 1.46e-05  3.50e-05     6s
  44   1.51189609e+05  1.51183927e+05  8.94e-06 9.32e-06  2.66e-05     6s
  45   1.51188129e+05  1.51183999e+05  6.53e-06 7.81e-06  1.93e-05     7s
  46   1.51187188e+05  1.51184052e+05  4.85e-06 6.97e-06  1.47e-05     7s
  47   1.51186839e+05  1.51184203e+05  4.25e-06 3.85e-06  1.23e-05     7s
  48   1.51185707e+05  1.51184247e+05  2.30e-06 3.13e-06  6.83e-06     7s
  49   1.51184951e+05  1.51184295e+05  8.79e-07 2.31e-06  3.14e-06     7s
  50   1.51184892e+05  1.51184328e+05  7.72e-07 1.82e-06  2.69e-06     7s
  51   1.51184866e+05  1.51184373e+05  7.26e-07 1.20e-06  2.33e-06     7s
  52   1.51184688e+05  1.51184409e+05  3.97e-07 7.25e-07  1.32e-06     7s
  53   1.51184664e+05  1.51184415e+05  3.54e-07 6.52e-07  1.18e-06     7s
  54   1.51184618e+05  1.51184458e+05  2.71e-07 6.11e-08  7.40e-07     7s
  55   1.51184466e+05  1.51184463e+05  2.37e-09 8.11e-09  1.69e-08     7s
  56   1.51184466e+05  1.51184463e+05  1.30e-08 7.71e-09  1.64e-08     8s
  57   1.51184466e+05  1.51184463e+05  1.30e-08 7.69e-09  1.64e-08     8s
  58   1.51184466e+05  1.51184463e+05  1.99e-08 8.19e-09  1.63e-08     8s

Barrier solved model in 58 iterations and 7.70 seconds
Optimal objective 1.51184466e+05


Root crossover log...

   18372 DPushes remaining with DInf 0.0000000e+00                 8s
       0 DPushes remaining with DInf 0.0000000e+00                 8s

     520 PPushes remaining with PInf 0.0000000e+00                 8s
       0 PPushes remaining with PInf 0.0000000e+00                 8s

  Push phase complete: Pinf 0.0000000e+00, Dinf 9.1107122e-11      8s


Root simplex log...

Iteration    Objective       Primal Inf.    Dual Inf.      Time
    3921    1.5118446e+05   0.000000e+00   0.000000e+00      8s
    3921    1.5118446e+05   0.000000e+00   0.000000e+00      8s

Solved with barrier

Root relaxation: objective 1.511845e+05, 3921 iterations, 6.22 seconds

    Nodes    |    Current Node    |     Objective Bounds      |     Work
 Expl Unexpl |  Obj  Depth IntInf | Incumbent    BestBd   Gap | It/Node Time

     0     0 151184.464    0 8671 192652.000 151184.464  21.5%     -    9s
H    0     0                    160440.00000 151184.464  5.77%     -   10s
H    0     0                    160386.00000 151184.464  5.74%     -   10s
H    0     0                    160261.00000 151184.464  5.66%     -   10s
     0     0 151186.422    0 8673 160261.000 151186.422  5.66%     -   15s
H    0     0                    160242.00000 151186.422  5.65%     -   16s
     0     0 151186.453    0 8679 160242.000 151186.453  5.65%     -   17s
     0     0 151186.542    0 8679 160242.000 151186.542  5.65%     -   18s
     0     0 151188.008    0 8681 160242.000 151188.008  5.65%     -   21s
H    0     0                    160088.00000 151188.008  5.56%     -   22s
     0     0 151188.008    0 8681 160088.000 151188.008  5.56%     -   23s
     0     0 151188.010    0 8681 160088.000 151188.010  5.56%     -   26s
     0     0 151188.010    0 8677 160088.000 151188.010  5.56%     -   31s
     0     2 151188.103    0 8677 160088.000 151188.103  5.56%     -   63s
     1     4 151283.051    1 8722 160088.000 151188.175  5.56%  7509   88s
     3     8 151383.471    2 8855 160088.000 151285.092  5.50% 11232  181s
     7    16 151414.221    3 8544 160088.000 151414.221  5.42% 12239  256s
    15    24 151580.619    4 8376 160088.000 151414.419  5.42% 11144  270s
H   18    24                    157737.00000 151414.419  4.01%  9514  270s
    23    32 151586.907    5 8618 157737.000 151414.419  4.01%  7958  283s
H   31    40                    157610.00000 151414.419  3.93%  6915  300s
H   31    40                    157415.00000 151414.419  3.81%  6915  300s
H   32    40                    157257.00000 151414.419  3.72%  6742  300s
H   34    40                    157085.00000 151414.419  3.61%  6378  300s
H   38    40                    157002.00000 151414.419  3.56%  5948  300s

Cutting planes:
  Gomory: 2

Explored 39 nodes (233324 simplex iterations) in 300.75 seconds
Thread count was 16 (of 16 available processors)

Solution count 10: 157002 157085 157257 ... 160386

Time limit reached
Best objective 1.570020000000e+05, best bound 1.514150000000e+05, gap 3.5586%

User-callback calls 170038, time in user-callback 2.32 sec
['/opt/local/stow/gurobi910/linux64/lib/libgurobi91.so']
Result: runtime=300.64sec; objective=157002
Solution written to /autofs/unityaccount/cremi/mdeboute/Bureau/multi-period-flp/solution/instSingle_I30_J250_T8_1_result.txt
